19 40 40
24 41 5
53 10 13
44 3 20
17 60 11
31 11 58
5 15 32
14 17 24
3 47 21
19 56 28
40 17 30
13 46 47
44 41 5
42 59 57
32 53 5
29 50 9
44 61 14
61 62 3
12 22 55
7 46 32
7 11 4
62 22 41
12 62 6
9 30 48
56 23 7
57 17 53
53 35 62
44 19 55
53 41 52
14 62 38
53 36 50
38 30 46
3 37 10
45 61 15
8 4 12
48 64 7
61 44 26
20 9 48
27 38 15
40 17 39
33 50 50
6 2 19
64 10 46
42 47 38
27 34 10
13 63 43
19 7 18
42 42 5
21 47 47
49 19 40
43 10 39
21 44 47
62 60 48
57 30 30
5 14 39
41 45 52
25 47 7
34 23 23
44 29 43
19 24 2
9 18 10
30 24 54
45 6 46
8 55 36
